n_res = 4;
rc = [ 23, 23, 25, 23 ];
n_tasks = 15;
d = [ 4, 2, 6, 1, 75, 50, 175, 150, 75, 50, 175, 5, 9, 10, 2 ];
rr = [| 3, 3, 1, 2, 8, 6, 6, 8, 10, 4, 10, 7, 1, 2, 6
      | 3, 6, 1, 4, 6, 2, 5, 8, 8, 1, 8, 2, 1, 8, 5
      | 5, 5, 10, 1, 1, 1, 3, 10, 4, 9, 1, 1, 3, 9, 1
      | 9, 2, 6, 2, 2, 8, 1, 2, 9, 7, 10, 1, 3, 8, 8 |];
suc = [ { 4 },
       { 8 },
       { 5, 6, 7 },
       { 10, 15 },
       { 9, 11 },
       { 11, 13 },
       { 10 },
       {  },
       { 15 },
       { 13, 14 },
       { 12 },
       { 15 },
       {  },
       {  },
       {  } ];
